pair_style 	eam/fs
pair_coeff 	* * Na_MendelevM_2014.eam.fs Na
